29025
0 0 0 0 1 1 1 0 0 0 0 1 1 1 0 0 1 1 1 1 0 0 0 1 1 1 0 0 1 1 
18 19 24 24 5 12 16 28 18 28 4 28 23 23 28 18 13 23 16 24 18 16 5 24 23 18 24 19 29 5 19 19 4 16 28 6 17 13 24 16 18 13 6 4 13 19 13 16 19 17 24 16 24 16 13 6 11 4 18 25 29 17 25 13 13 11 5 17 28 25 18 12 19 19 23 23 23 23 13 16 23 17 19 25 29 13 6 5 24 25 28 6 25 25 5 13 11 6 17 28 28 16 25 18 4 24 4 24 16 13 19 4 18 12 12 13 28 25 17 13 19 11 17 19 4 16 5 11 19 17 28 24 25 23 23 19 13 13 28 17 12 18 11 11 25 5 24 16 18 25 24 17 23 17 13 11 5 16 13 13 13 24 23 24 5 28 5 4 13 16 5 13 19 17 4 5 24 23 29 23 5 16 24 19 12 13 28 23 17 16 5 16 6 4 25 12 25 5 23 19 
